
  18    0


   0  10 2 3 4 5 7 8 9 15 16 17 
   2   2 14 11 
   8   2 11 10 
   2   2 11 10 
   2   1 6 
  10   1 10 
  10   1 13 
   6   1 12 
   4   1 10 
  10   1 18
   4   1 18
   1   1 18
   9   1 18
  10   1 18
   7   1 18
   4   1 18
  10   1 18
   0   0 
